
  22   10
  10   10   10   10   10   10   10   10   10   10

   0   0   0   0   0   0   0   0   0   0   0   4 2 5 7 9 
   7   0   0   0   0   0   0   0   0   0  10   1 3 
   7   0   0   0   0   0   0   0  10   0   0   2 21 4 
   1   0   0   0   0   0   0  10   0   0   0   1 6 
   4   0  10   0   0   0   0   0   0   0   0   1 6 
   4   0   0   0   0   0   0   0   0   0  10   1 8 
   6   0   0  10   0   0   0   0   0   0   0   1 8 
   6   0   0  10   0   0   0   0   0   0   0   3 20 19 10 
   2   0   0   0   0   0   0   0   0   0  10   3 21 19 10 
   7   0   0   0   0   0  10   0   0   0   0   2 15 11 
   7   0   0   0   0  10   0   0   0   0   0   3 17 14 12 
   6   0   0   0   0   0   0   0   0  10   0   1 13 
   6   0   0   0   0   0   0   0   0  10   0   1 16 
   9   0   0   0  10   0   0   0   0   0   0   1 18 
   7   0   0   0   0   0   0   0  10   0   0   1 17 
   7   0   0   0   0   0   0   0   0   0  10   1 22
   4   0   0   0  10   0   0   0   0   0   0   1 22
   7   0   0  10   0   0   0   0   0   0   0   1 22
   2   0   0   0   0   0   0   0   0  10   0   1 22
   3   0   0   0   0  10   0   0   0   0   0   1 22
  10   0   0   0   0   0   0   0   0   0  10   1 22
   0   0   0   0   0   0   0   0   0   0   0   0 
